NAME : rat99.tsp
TYPE : TOUR
DIMENSION : 99
TOUR_LENGTH : 1320.4189451819211
TOUR_SECTION
1
10
20
19
28
37
29
30
31
32
33
34
43
42
53
52
51
60
49
50
41
40
39
48
38
47
46
55
56
57
58
59
66
65
64
74
73
82
91
92
93
83
84
85
86
87
95
94
96
97
98
99
90
89
88
79
78
77
76
75
67
68
69
61
62
70
71
80
81
72
63
54
45
44
36
35
27
26
25
24
23
22
21
13
12
11
2
3
4
5
6
7
8
9
18
17
16
15
14
-1
